computational_data/real_data/solutions/wdbc_trial_011_lex.sol
Optimal - objective value 7.38053100
      0 r_0                         1                0.955752
      1 r_1                         0                0.946903
      2 r_2                         0                0.946903
      3 r_3                         0                0.946903
      4 r_4                         0                0.946903
      5 r_5                         0                0.938053
      6 r_6                         0                0.938053
      7 r_7                         0                0.920354
      8 r_8                         0                0.920354
      9 r_9                         0                0.911504
     10 r_10                        0                0.911504
     11 r_11                        0                0.902655
     12 r_12                        1                0.902655
     13 r_13                        0                0.902655
     14 r_14                        0                0.902655
     15 r_15                        1                0.902655
     16 b_0                         0                0.955752
     17 b_1                         0                0.946903
     18 b_2                         1                0.946903
     19 b_3                         0                0.946903
     20 b_4                         0                0.946903
     21 b_5                         0                0.938053
     22 b_6                         1                0.938053
     23 b_7                         0                0.920354
     24 b_8                         1                0.920354
     25 b_9                         1                0.911504
     26 b_10                        0                0.911504
     27 b_11                        0                0.902655
     28 b_12                        0                0.902655
     29 b_13                        1                0.902655
     30 b_14                        0                0.902655
     31 b_15                        0                0.902655
