computational_data/real_data/logs/wdbc_trial_011_lex.log
Welcome to the CBC MILP Solver 
Version: 2.10.12 
Build Date: Aug 20 2024 

command line - /opt/homebrew/bin/cbc computational_data/real_data/lp/wdbc_trial_011_lex.lp seconds 10.0 solve solu computational_data/real_data/solutions/wdbc_trial_011_lex.sol (default strategy 1)
 CoinLpIO::readLp(): Maximization problem reformulated as minimization
Coin0009I Switching back to maximization to get correct duals etc
seconds was changed from 1e+100 to 10
Continuous objective value is 7.45133 - 0.00 seconds
Cgl0003I 0 fixed, 0 tightened bounds, 32 strengthened rows, 0 substitutions
Cgl0003I 0 fixed, 0 tightened bounds, 39 strengthened rows, 0 substitutions
Cgl0003I 0 fixed, 0 tightened bounds, 33 strengthened rows, 0 substitutions
Cgl0003I 0 fixed, 0 tightened bounds, 13 strengthened rows, 0 substitutions
Cgl0003I 0 fixed, 0 tightened bounds, 6 strengthened rows, 0 substitutions
Cgl0003I 0 fixed, 0 tightened bounds, 5 strengthened rows, 0 substitutions
Cgl0003I 0 fixed, 0 tightened bounds, 4 strengthened rows, 0 substitutions
Cgl0003I 0 fixed, 0 tightened bounds, 4 strengthened rows, 0 substitutions
Cgl0004I processed model has 64 rows, 31 columns (31 integer (31 of which binary)) and 344 elements
Cbc0038I Initial state - 17 integers unsatisfied sum - 7
Cbc0038I Pass   1: suminf.    0.00000 (0) obj. 7.38053 iterations 20
Cbc0038I Solution found of 7.38053
Cbc0038I Before mini branch and bound, 12 integers at bound fixed and 0 continuous
Cbc0038I Full problem 64 rows 31 columns, reduced to 38 rows 16 columns
Cbc0038I Mini branch and bound did not improve solution (0.01 seconds)
Cbc0038I Round again with cutoff of 7.38319
Cbc0038I Pass   2: suminf.    0.97831 (13) obj. 7.38319 iterations 11
Cbc0038I Pass   3: suminf.    0.92312 (18) obj. 7.38319 iterations 4
Cbc0038I Pass   4: suminf.    3.24079 (15) obj. 7.38319 iterations 17
Cbc0038I Pass   5: suminf.    3.00000 (9) obj. 7.38938 iterations 5
Cbc0038I Pass   6: suminf.    2.33333 (7) obj. 7.38348 iterations 10
Cbc0038I Pass   7: suminf.    2.30097 (7) obj. 7.38319 iterations 11
Cbc0038I Pass   8: suminf.    3.00000 (9) obj. 7.38938 iterations 15
Cbc0038I Pass   9: suminf.    3.35075 (11) obj. 7.38319 iterations 13
Cbc0038I Pass  10: suminf.    3.30099 (12) obj. 7.38319 iterations 1
Cbc0038I Pass  11: suminf.    3.79932 (10) obj. 7.38319 iterations 5
Cbc0038I Pass  12: suminf.    1.20407 (10) obj. 7.38319 iterations 4
Cbc0038I Pass  13: suminf.    0.92312 (18) obj. 7.38319 iterations 6
Cbc0038I Pass  14: suminf.    3.00000 (9) obj. 7.38938 iterations 21
Cbc0038I Pass  15: suminf.    2.33333 (7) obj. 7.38348 iterations 5
Cbc0038I Pass  16: suminf.    2.30097 (7) obj. 7.38319 iterations 6
Cbc0038I Pass  17: suminf.    3.00000 (9) obj. 7.38938 iterations 8
Cbc0038I Pass  18: suminf.    2.30097 (7) obj. 7.38319 iterations 8
Cbc0038I Pass  19: suminf.    2.30097 (7) obj. 7.38319 iterations 8
Cbc0038I Pass  20: suminf.    3.00000 (9) obj. 7.38938 iterations 15
Cbc0038I Pass  21: suminf.    2.33333 (7) obj. 7.38348 iterations 10
Cbc0038I Pass  22: suminf.    2.30097 (7) obj. 7.38319 iterations 9
Cbc0038I Pass  23: suminf.    3.00000 (9) obj. 7.38938 iterations 13
Cbc0038I Pass  24: suminf.    4.30102 (14) obj. 7.38319 iterations 16
Cbc0038I Pass  25: suminf.    3.66667 (11) obj. 7.38319 iterations 12
Cbc0038I Pass  26: suminf.    1.35456 (12) obj. 7.38319 iterations 3
Cbc0038I Pass  27: suminf.    0.92312 (18) obj. 7.38319 iterations 6
Cbc0038I Pass  28: suminf.    2.92040 (9) obj. 7.38319 iterations 19
Cbc0038I Pass  29: suminf.    2.92040 (9) obj. 7.38319 iterations 10
Cbc0038I Pass  30: suminf.    3.00000 (9) obj. 7.38938 iterations 15
Cbc0038I Pass  31: suminf.    2.33333 (7) obj. 7.38348 iterations 12
Cbc0038I No solution found this major pass
Cbc0038I Before mini branch and bound, 3 integers at bound fixed and 0 continuous
Cbc0038I Full problem 64 rows 31 columns, reduced to 60 rows 28 columns
Cbc0038I Mini branch and bound did not improve solution (0.02 seconds)
Cbc0038I After 0.02 seconds - Feasibility pump exiting with objective of 7.38053 - took 0.01 seconds
Cbc0012I Integer solution of 7.380531 found by feasibility pump after 0 iterations and 0 nodes (0.02 seconds)
Cbc0038I Full problem 64 rows 31 columns, reduced to 38 rows 16 columns
Cbc0031I 3 added rows had average density of 19.333333
Cbc0013I At root node, 12 cuts changed objective from 7.40708 to 7.380531 in 2 passes
Cbc0014I Cut generator 0 (Probing) - 2 row cuts average 2.0 elements, 2 column cuts (2 active)  in 0.000 seconds - new frequency is 1
Cbc0014I Cut generator 1 (Gomory) - 7 row cuts average 11.7 elements, 0 column cuts (0 active)  in 0.000 seconds - new frequency is 1
Cbc0014I Cut generator 2 (Knapsack) - 0 row cuts average 0.0 elements, 0 column cuts (0 active)  in 0.000 seconds - new frequency is -100
Cbc0014I Cut generator 3 (Clique) - 0 row cuts average 0.0 elements, 0 column cuts (0 active)  in 0.000 seconds - new frequency is -100
Cbc0014I Cut generator 4 (MixedIntegerRounding2) - 0 row cuts average 0.0 elements, 0 column cuts (0 active)  in 0.000 seconds - new frequency is -100
Cbc0014I Cut generator 5 (FlowCover) - 0 row cuts average 0.0 elements, 0 column cuts (0 active)  in 0.000 seconds - new frequency is -100
Cbc0014I Cut generator 6 (TwoMirCuts) - 9 row cuts average 13.6 elements, 0 column cuts (0 active)  in 0.000 seconds - new frequency is -100
Cbc0001I Search completed - best objective 7.380531, took 21 iterations and 0 nodes (0.02 seconds)
Cbc0035I Maximum depth 0, 2 variables fixed on reduced cost
Cuts at root node changed objective from 7.40708 to 7.38053
Probing was tried 2 times and created 4 cuts of which 0 were active after adding rounds of cuts (0.000 seconds)
Gomory was tried 2 times and created 7 cuts of which 0 were active after adding rounds of cuts (0.000 seconds)
Knapsack was tried 2 times and created 0 cuts of which 0 were active after adding rounds of cuts (0.000 seconds)
Clique was tried 2 times and created 0 cuts of which 0 were active after adding rounds of cuts (0.000 seconds)
MixedIntegerRounding2 was tried 2 times and created 0 cuts of which 0 were active after adding rounds of cuts (0.000 seconds)
FlowCover was tried 2 times and created 0 cuts of which 0 were active after adding rounds of cuts (0.000 seconds)
TwoMirCuts was tried 2 times and created 9 cuts of which 0 were active after adding rounds of cuts (0.000 seconds)
ZeroHalf was tried 1 times and created 0 cuts of which 0 were active after adding rounds of cuts (0.000 seconds)

Result - Optimal solution found

Objective value:                7.38053100
Enumerated nodes:               0
Total iterations:               21
Time (CPU seconds):             0.02
Time (Wallclock seconds):       0.02

Total time (CPU seconds):       0.02   (Wallclock seconds):       0.02

